(set-info :smt-lib-version 2.6)
(set-logic UFLIA)
(set-info :source |
Generated by: Geoff Sutcliffe
Generated on: 2026-03-11
Generator: TPTPWorld
Application: Benchmarking automated theorem provers
Time limit: 120.0

These benchmarks are translations from the TPTP Library (Thousands of
Problems for Theorem Provers), see http://www.cs.miami.edu/~tptp/

The TPTP is maintained by Geoff Sutcliffe, and he contributed this
selection of benchmarks to SMT-LIB.  They were exported from the
v9.2.1 realease of TPTP.
|)
(set-info :category "industrial")
(set-info :status "unknown")
; SZS status Success
(declare-sort $$unsorted 0)
(declare-fun tptp.f (Int) Int)
(assert (not (=> (forall ((U Int) (V Int)) (=> (< U V) (< (tptp.f U) (tptp.f V)))) (forall ((W Int)) (let ((_let_1 (tptp.f W))) (> (tptp.f (+ _let_1 2)) (+ (tptp.f _let_1) 1)))))))
(check-sat)
(exit)
